16 32
1 2 3
1 5 1
2 3 4
2 6 5
3 4 4
3 7 1
4 8 5
5 6 5
5 9 4
6 7 3
6 10 2
7 8 1
7 11 4
8 12 3
9 10 1
9 13 4
10 11 5
10 14 1
11 12 1
11 15 5
12 16 1
13 14 5
14 15 5
15 16 5
1 13 3
2 14 3
3 15 4
4 16 4
1 4 5
5 8 4
9 12 1
13 16 1
